 10	53
 12
  0	  3	 56	 33	 40	 86	 93	 48	 20	101	 73	107	
 10
  0	 50	103	 52	 30	105	 83	 19	 72	107	
 12
  0	 32	 53	 51	 15	 26	104	 85	106	 68	 79	107	
 10
  0	  8	  2	 61	 55	 41	 47	 94	100	107	
 14
  0	 44	 42	 14	 95	 67	 97	  1	 46	 54	 23	 99	 76	107	
  8
  0	 39	 10	 63	  7	 92	 60	107	
 22
  0	  9	 24	 77	 37	 31	 90	 62	 13	  6	 84	 12	 66	 18	 38	 59	 65	 71	 27	 80	 91	107	
 12
  0	 16	  5	 69	 58	 25	 28	 81	 45	 78	 98	107	
 12
  0	 35	 49	102	 43	 36	 88	 29	 96	 82	 89	107	
 14
  0	 34	 21	 11	 87	 22	 74	 64	 75	  4	 17	 57	 70	107	
